/*********************************************
 * OPL 12.7.0.0 Data
 * Author: asus
 * Creation Date: 17 avril. 2022 at 01:32:00
 *********************************************/
a = 20;
r = [4,18,18,8,10,6,2,3,9,5,3,2,1,7,4,3,9,1,15];
Ass = 	{
			<0,1>,<1,3>,
			<2,3>,<3,4>,
			<4,5>,<5,6>,
			<5,9>,<5,11>,
			<9,15>,<5,8>,
			<5,6>,<6,8>,
			<6,9>,<6,11>,
			<4,6>,<7,12>,
			<8,16>,<9,12>,
			<11,16>,<12,17>,
			<14,13>,<14,15>,
			<10,19>,<13,19>,
			<15,19>,<16,19>,
			<18,19>
		};